NAME : lsm2854
COMMENT : Bonn VLSI data set with 2854 points
COMMENT : Uni Bonn, Research Institute for Discrete Math
COMMENT : Contributed by Andre Rohe
TYPE : TSP
DIMENSION : 2854
EDGE_WEIGHT_TYPE : EUC_2D
NODE_COORD_SECTION
1 0 110
2 0 116
3 0 125
4 0 138
5 0 140
6 0 147
7 0 155
8 0 16
9 0 169
10 0 170
11 0 185
12 0 20
13 0 200
14 0 215
15 0 218
16 0 230
17 0 245
18 0 249
19 0 260
20 0 31
21 0 35
22 0 46
23 0 50
24 0 65
25 0 80
26 0 95
27 2 100
28 2 101
29 2 103
30 2 105
31 2 107
32 2 108
33 2 109
34 2 114
35 2 116
36 2 117
37 2 119
38 2 129
39 2 131
40 2 139
41 2 140
42 2 144
43 2 145
44 2 148
45 2 149
46 2 150
47 2 155
48 2 157
49 2 160
50 2 161
51 2 165
52 2 166
53 2 169
54 2 170
55 2 171
56 2 176
57 2 178
58 2 194
59 2 208
60 2 210
61 2 213
62 2 216
63 2 217
64 2 218
65 2 22
66 2 221
67 2 223
68 2 225
69 2 227
70 2 229
71 2 235
72 2 236
73 2 237
74 2 24
75 2 240
76 2 242
77 2 244
78 2 258
79 2 260
80 2 27
81 2 29
82 2 31
83 2 32
84 2 34
85 2 48
86 2 52
87 2 53
88 2 54
89 2 55
90 2 58
91 2 60
92 2 64
93 2 79
94 2 81
95 2 82
96 2 84
97 2 85
98 2 86
99 2 88
100 2 89
101 2 90
102 2 91
103 2 92
104 2 94
105 2 95
106 2 96
107 2 98
108 3 142
109 3 163
110 5 100
111 5 103
112 5 112
113 5 116
114 5 119
115 5 12
116 5 124
117 5 131
118 5 135
119 5 16
120 5 199
121 5 202
122 5 206
123 5 209
124 5 221
125 5 223
126 5 227
127 5 240
128 5 244
129 5 248
130 5 252
131 5 263
132 5 266
133 5 268
134 5 28
135 5 31
136 5 34
137 5 38
138 5 45
139 5 51
140 5 58
141 5 63
142 5 67
143 5 70
144 5 73
145 5 77
146 5 8
147 5 81
148 5 83
149 8 120
150 8 126
151 9 101
152 9 114
153 9 117
154 9 12
155 9 120
156 9 126
157 9 129
158 9 16
159 9 207
160 9 225
161 9 242
162 9 245
163 9 248
164 9 252
165 9 29
166 9 32
167 9 35
168 9 42
169 9 60
170 9 64
171 9 79
172 9 9
173 9 98
174 10 10
175 10 101
176 10 114
177 10 117
178 10 120
179 10 126
180 10 129
181 10 14
182 10 207
183 10 220
184 10 225
185 10 228
186 10 239
187 10 242
188 10 246
189 10 250
190 10 27
191 10 29
192 10 32
193 10 35
194 10 42
195 10 57
196 10 60
197 10 64
198 10 79
199 10 82
200 10 98
201 11 101
202 11 111
203 11 114
204 11 117
205 11 120
206 11 127
207 11 129
208 11 18
209 11 184
210 11 197
211 11 200
212 11 207
213 11 220
214 11 225
215 11 228
216 11 239
217 11 242
218 11 254
219 11 262
220 11 265
221 11 27
222 11 29
223 11 32
224 11 35
225 11 42
226 11 57
227 11 60
228 11 64
229 11 68
230 11 71
231 11 79
232 11 82
233 11 98
234 12 120
235 12 132
236 12 35
237 12 42
238 12 5
239 12 60
240 12 64
241 15 11
242 15 112
243 15 135
244 15 15
245 15 221
246 15 223
247 15 240
248 15 247
249 15 251
250 15 263
251 15 266
252 15 268
253 15 28
254 15 38
255 15 45
256 15 51
257 15 58
258 15 63
259 15 67
260 15 8
261 15 83
262 16 229
263 17 105
264 17 108
265 17 109
266 17 139
267 17 145
268 17 148
269 17 155
270 17 157
271 17 160
272 17 166
273 17 169
274 17 176
275 17 178
276 17 213
277 17 217
278 17 236
279 17 237
280 17 53
281 17 54
282 17 55
283 17 85
284 17 86
285 17 89
286 17 90
287 17 91
288 17 92
289 17 95
290 17 96
291 18 121
292 18 122
293 18 124
294 18 125
295 18 126
296 18 143
297 18 149
298 18 164
299 18 170
300 18 194
301 18 218
302 18 36
303 18 37
304 18 39
305 18 40
306 18 43
307 18 45
308 18 46
309 18 47
310 18 49
311 18 50
312 18 61
313 18 62
314 18 65
315 18 66
316 25 105
317 25 107
318 25 108
319 25 112
320 25 114
321 25 115
322 25 117
323 25 118
324 25 120
325 25 121
326 25 123
327 25 129
328 25 131
329 25 133
330 25 139
331 25 140
332 25 144
333 25 145
334 25 148
335 25 149
336 25 150
337 25 155
338 25 157
339 25 160
340 25 161
341 25 165
342 25 166
343 25 169
344 25 170
345 25 171
346 25 176
347 25 178
348 25 193
349 25 195
350 25 20
351 25 207
352 25 21
353 25 214
354 25 216
355 25 22
356 25 225
357 25 226
358 25 227
359 25 229
360 25 232
361 25 235
362 25 239
363 25 24
364 25 241
365 25 243
366 25 245
367 25 251
368 25 258
369 25 26
370 25 28
371 25 30
372 25 32
373 25 34
374 25 35
375 25 37
376 25 38
377 25 40
378 25 42
379 25 44
380 25 46
381 25 48
382 25 52
383 25 54
384 25 55
385 25 57
386 25 58
387 25 60
388 25 62
389 25 64
390 25 70
391 25 72
392 25 73
393 25 75
394 25 77
395 25 81
396 25 87
397 25 89
398 25 92
399 25 94
400 25 95
401 25 97
402 25 99
403 26 142
404 26 163
405 28 102
406 28 107
407 28 111
408 28 114
409 28 117
410 28 12
411 28 120
412 28 123
413 28 127
414 28 131
415 28 137
416 28 17
417 28 183
418 28 187
419 28 198
420 28 201
421 28 203
422 28 208
423 28 212
424 28 215
425 28 221
426 28 232
427 28 235
428 28 237
429 28 240
430 28 244
431 28 248
432 28 26
433 28 263
434 28 266
435 28 270
436 28 29
437 28 34
438 28 37
439 28 40
440 28 44
441 28 48
442 28 51
443 28 54
444 28 57
445 28 60
446 28 65
447 28 67
448 28 72
449 28 75
450 28 8
451 28 80
452 28 82
453 28 94
454 28 97
455 31 9
456 31 98
457 32 105
458 32 108
459 32 112
460 32 115
461 32 118
462 32 121
463 32 129
464 32 180
465 32 183
466 32 187
467 32 213
468 32 218
469 32 238
470 32 24
471 32 27
472 32 32
473 32 35
474 32 38
475 32 42
476 32 46
477 32 52
478 32 55
479 32 58
480 32 70
481 32 73
482 32 77
483 32 92
484 32 95
485 32 98
486 33 105
487 33 108
488 33 112
489 33 115
490 33 118
491 33 121
492 33 129
493 33 181
494 33 185
495 33 207
496 33 213
497 33 218
498 33 231
499 33 234
500 33 238
501 33 24
502 33 27
503 33 32
504 33 35
505 33 38
506 33 42
507 33 46
508 33 52
509 33 55
510 33 58
511 33 64
512 33 70
513 33 73
514 33 77
515 33 81
516 33 92
517 33 95
518 33 98
519 34 105
520 34 108
521 34 112
522 34 115
523 34 118
524 34 121
525 34 129
526 34 135
527 34 189
528 34 197
529 34 200
530 34 207
531 34 213
532 34 218
533 34 231
534 34 234
535 34 238
536 34 24
537 34 247
538 34 261
539 34 264
540 34 27
541 34 32
542 34 35
543 34 38
544 34 42
545 34 46
546 34 49
547 34 52
548 34 55
549 34 58
550 34 64
551 34 66
552 34 70
553 34 73
554 34 77
555 34 81
556 34 83
557 34 92
558 34 95
559 34 98
560 35 108
561 35 124
562 35 209
563 35 218
564 35 5
565 35 77
566 35 98
567 38 111
568 38 12
569 38 127
570 38 17
571 38 182
572 38 186
573 38 198
574 38 201
575 38 203
576 38 208
577 38 212
578 38 221
579 38 232
580 38 235
581 38 237
582 38 248
583 38 65
584 38 67
585 38 8
586 38 80
587 38 82
588 40 133
589 40 139
590 40 145
591 40 148
592 40 155
593 40 157
594 40 160
595 40 166
596 40 169
597 40 176
598 40 178
599 40 21
600 40 22
601 40 226
602 40 227
603 40 229
604 40 251
605 40 62
606 41 100
607 41 101
608 41 109
609 41 110
610 41 143
611 41 149
612 41 164
613 41 170
614 41 219
615 41 220
616 41 222
617 41 223
618 41 258
619 41 78
620 41 79
621 48 100
622 48 102
623 48 106
624 48 108
625 48 109
626 48 111
627 48 112
628 48 114
629 48 116
630 48 120
631 48 122
632 48 123
633 48 125
634 48 126
635 48 128
636 48 129
637 48 13
638 48 131
639 48 132
640 48 134
641 48 136
642 48 137
643 48 141
644 48 142
645 48 145
646 48 146
647 48 147
648 48 15
649 48 152
650 48 154
651 48 157
652 48 158
653 48 162
654 48 163
655 48 166
656 48 167
657 48 168
658 48 17
659 48 173
660 48 175
661 48 178
662 48 179
663 48 18
664 48 183
665 48 184
666 48 187
667 48 188
668 48 189
669 48 19
670 48 194
671 48 196
672 48 199
673 48 214
674 48 216
675 48 218
676 48 22
677 48 220
678 48 221
679 48 223
680 48 225
681 48 226
682 48 227
683 48 228
684 48 232
685 48 234
686 48 237
687 48 24
688 48 241
689 48 243
690 48 246
691 48 247
692 48 248
693 48 259
694 48 26
695 48 261
696 48 28
697 48 29
698 48 30
699 48 32
700 48 34
701 48 36
702 48 38
703 48 40
704 48 42
705 48 44
706 48 46
707 48 47
708 48 51
709 48 53
710 48 55
711 48 60
712 48 64
713 48 67
714 48 70
715 48 72
716 48 73
717 48 75
718 48 77
719 48 79
720 48 80
721 48 81
722 48 82
723 48 83
724 48 85
725 48 98
726 49 139
727 49 160
728 49 181
729 51 100
730 51 105
731 51 108
732 51 111
733 51 114
734 51 119
735 51 122
736 51 125
737 51 128
738 51 131
739 51 134
740 51 203
741 51 206
742 51 210
743 51 215
744 51 220
745 51 223
746 51 23
747 51 233
748 51 237
749 51 239
750 51 242
751 51 254
752 51 264
753 51 267
754 51 269
755 51 27
756 51 33
757 51 36
758 51 40
759 51 44
760 51 56
761 51 59
762 51 63
763 51 65
764 51 72
765 51 75
766 51 79
767 51 8
768 51 86
769 51 90
770 51 97
771 54 101
772 54 115
773 54 51
774 55 101
775 55 106
776 55 109
777 55 112
778 55 115
779 55 120
780 55 123
781 55 126
782 55 129
783 55 132
784 55 21
785 55 213
786 55 218
787 55 221
788 55 231
789 55 240
790 55 34
791 55 38
792 55 42
793 55 51
794 55 60
795 55 70
796 55 73
797 55 77
798 55 87
799 55 98
800 56 101
801 56 106
802 56 109
803 56 112
804 56 115
805 56 120
806 56 123
807 56 126
808 56 129
809 56 132
810 56 21
811 56 213
812 56 218
813 56 221
814 56 231
815 56 236
816 56 240
817 56 26
818 56 32
819 56 34
820 56 38
821 56 42
822 56 52
823 56 55
824 56 60
825 56 64
826 56 70
827 56 73
828 56 77
829 56 85
830 56 87
831 56 98
832 57 101
833 57 106
834 57 109
835 57 112
836 57 115
837 57 120
838 57 123
839 57 126
840 57 129
841 57 132
842 57 201
843 57 204
844 57 21
845 57 213
846 57 218
847 57 221
848 57 231
849 57 236
850 57 240
851 57 247
852 57 255
853 57 26
854 57 263
855 57 266
856 57 32
857 57 34
858 57 38
859 57 42
860 57 51
861 57 55
862 57 57
863 57 60
864 57 64
865 57 70
866 57 73
867 57 77
868 57 85
869 57 87
870 57 9
871 57 98
872 58 101
873 58 115
874 58 251
875 58 5
876 58 60
877 58 87
878 58 94
879 61 237
880 61 239
881 61 254
882 61 264
883 61 267
884 61 269
885 61 27
886 61 33
887 61 53
888 61 56
889 61 63
890 61 65
891 61 8
892 61 86
893 61 90
894 61 97
895 63 136
896 63 142
897 63 145
898 63 152
899 63 154
900 63 157
901 63 163
902 63 166
903 63 173
904 63 175
905 63 178
906 63 18
907 63 184
908 63 187
909 63 19
910 63 194
911 63 196
912 63 199
913 63 29
914 63 30
915 63 47
916 63 67
917 63 81
918 63 82
919 63 83
920 64 103
921 64 104
922 64 117
923 64 118
924 64 140
925 64 146
926 64 161
927 64 167
928 64 182
929 64 188
930 64 225
931 64 227
932 64 228
933 64 248
934 64 61
935 64 62
936 64 88
937 64 90
938 64 91
939 64 92
940 71 10
941 71 103
942 71 105
943 71 110
944 71 112
945 71 134
946 71 135
947 71 145
948 71 146
949 71 148
950 71 160
951 71 161
952 71 162
953 71 163
954 71 187
955 71 188
956 71 192
957 71 193
958 71 196
959 71 197
960 71 198
961 71 203
962 71 205
963 71 212
964 71 216
965 71 217
966 71 218
967 71 219
968 71 221
969 71 223
970 71 224
971 71 226
972 71 228
973 71 230
974 71 232
975 71 234
976 71 236
977 71 239
978 71 240
979 71 241
980 71 244
981 71 245
982 71 246
983 71 25
984 71 261
985 71 27
986 71 28
987 71 30
988 71 34
989 71 38
990 71 50
991 71 52
992 71 54
993 71 55
994 71 61
995 71 63
996 71 64
997 71 66
998 71 69
999 71 71
1000 71 73
1001 71 77
1002 71 79
1003 71 80
1004 71 82
1005 71 84
1006 71 86
1007 71 88
1008 71 90
1009 71 93
1010 71 94
1011 71 95
1012 72 149
1013 72 190
1014 74 100
1015 74 105
1016 74 108
1017 74 112
1018 74 15
1019 74 18
1020 74 22
1021 74 223
1022 74 225
1023 74 227
1024 74 230
1025 74 233
1026 74 237
1027 74 251
1028 74 253
1029 74 256
1030 74 258
1031 74 27
1032 74 29
1033 74 33
1034 74 37
1035 74 41
1036 74 45
1037 74 54
1038 74 58
1039 74 63
1040 74 66
1041 74 71
1042 74 76
1043 74 79
1044 74 82
1045 74 85
1046 74 90
1047 78 103
1048 78 110
1049 78 179
1050 78 221
1051 78 228
1052 78 231
1053 78 25
1054 78 30
1055 78 34
1056 78 38
1057 78 42
1058 78 52
1059 78 55
1060 78 61
1061 78 64
1062 78 69
1063 78 73
1064 78 77
1065 78 80
1066 78 83
1067 78 88
1068 79 103
1069 79 110
1070 79 221
1071 79 224
1072 79 226
1073 79 228
1074 79 231
1075 79 236
1076 79 25
1077 79 28
1078 79 30
1079 79 34
1080 79 38
1081 79 42
1082 79 52
1083 79 55
1084 79 61
1085 79 64
1086 79 69
1087 79 73
1088 79 77
1089 79 80
1090 79 83
1091 79 88
1092 80 103
1093 80 106
1094 80 110
1095 80 113
1096 80 13
1097 80 16
1098 80 179
1099 80 221
1100 80 224
1101 80 226
1102 80 228
1103 80 231
1104 80 236
1105 80 240
1106 80 25
1107 80 252
1108 80 255
1109 80 267
1110 80 28
1111 80 30
1112 80 34
1113 80 38
1114 80 42
1115 80 52
1116 80 55
1117 80 61
1118 80 64
1119 80 69
1120 80 73
1121 80 77
1122 80 80
1123 80 83
1124 80 88
1125 81 248
1126 81 30
1127 81 34
1128 81 38
1129 81 42
1130 81 55
1131 81 73
1132 81 97
1133 84 100
1134 84 225
1135 84 227
1136 84 237
1137 84 251
1138 84 253
1139 84 256
1140 84 258
1141 84 29
1142 84 33
1143 84 37
1144 84 41
1145 84 45
1146 84 58
1147 84 76
1148 86 134
1149 86 160
1150 86 162
1151 86 187
1152 86 193
1153 86 196
1154 86 203
1155 86 205
1156 86 216
1157 86 217
1158 86 218
1159 86 219
1160 86 245
1161 86 246
1162 86 261
1163 86 50
1164 86 94
1165 86 95
1166 87 10
1167 87 133
1168 87 144
1169 87 150
1170 87 163
1171 87 191
1172 87 197
1173 87 212
1174 87 241
1175 87 31
1176 87 32
1177 87 35
1178 87 36
1179 87 39
1180 87 40
1181 87 43
1182 87 45
1183 87 46
1184 87 47
1185 87 56
1186 87 57
1187 87 74
1188 87 75
1189 94 100
1190 94 101
1191 94 102
1192 94 103
1193 94 105
1194 94 107
1195 94 108
1196 94 110
1197 94 115
1198 94 118
1199 94 122
1200 94 124
1201 94 126
1202 94 13
1203 94 140
1204 94 141
1205 94 145
1206 94 146
1207 94 150
1208 94 151
1209 94 156
1210 94 158
1211 94 161
1212 94 162
1213 94 166
1214 94 167
1215 94 170
1216 94 171
1217 94 172
1218 94 177
1219 94 179
1220 94 197
1221 94 213
1222 94 216
1223 94 217
1224 94 218
1225 94 220
1226 94 221
1227 94 222
1228 94 223
1229 94 225
1230 94 227
1231 94 228
1232 94 230
1233 94 231
1234 94 233
1235 94 234
1236 94 236
1237 94 238
1238 94 239
1239 94 241
1240 94 242
1241 94 243
1242 94 244
1243 94 246
1244 94 248
1245 94 249
1246 94 250
1247 94 251
1248 94 267
1249 94 29
1250 94 36
1251 94 40
1252 94 42
1253 94 43
1254 94 45
1255 94 46
1256 94 52
1257 94 54
1258 94 55
1259 94 57
1260 94 58
1261 94 60
1262 94 62
1263 94 67
1264 94 71
1265 94 73
1266 94 75
1267 94 77
1268 94 79
1269 94 80
1270 94 81
1271 94 83
1272 94 85
1273 94 86
1274 94 90
1275 94 94
1276 94 95
1277 94 96
1278 94 98
1279 95 143
1280 95 164
1281 97 0
1282 97 107
1283 97 110
1284 97 114
1285 97 116
1286 97 121
1287 97 123
1288 97 126
1289 97 129
1290 97 132
1291 97 136
1292 97 183
1293 97 187
1294 97 189
1295 97 192
1296 97 194
1297 97 227
1298 97 235
1299 97 238
1300 97 241
1301 97 245
1302 97 248
1303 97 26
1304 97 276
1305 97 42
1306 97 45
1307 97 47
1308 97 51
1309 97 54
1310 97 57
1311 97 60
1312 97 66
1313 97 7
1314 97 70
1315 97 73
1316 97 77
1317 97 85
1318 97 89
1319 97 91
1320 97 99
1321 100 117
1322 100 228
1323 100 231
1324 100 242
1325 101 105
1326 101 108
1327 101 117
1328 101 124
1329 101 225
1330 101 228
1331 101 231
1332 101 236
1333 101 239
1334 101 242
1335 101 246
1336 101 40
1337 101 43
1338 101 52
1339 101 55
1340 101 58
1341 101 67
1342 101 71
1343 101 75
1344 101 83
1345 101 86
1346 102 10
1347 102 105
1348 102 108
1349 102 115
1350 102 117
1351 102 122
1352 102 124
1353 102 225
1354 102 229
1355 102 232
1356 102 234
1357 102 236
1358 102 239
1359 102 242
1360 102 246
1361 102 40
1362 102 43
1363 102 46
1364 102 52
1365 102 55
1366 102 58
1367 102 67
1368 102 71
1369 102 75
1370 102 83
1371 102 86
1372 102 90
1373 102 98
1374 103 10
1375 103 105
1376 103 108
1377 103 115
1378 103 117
1379 103 122
1380 103 124
1381 103 127
1382 103 130
1383 103 181
1384 103 188
1385 103 191
1386 103 203
1387 103 225
1388 103 228
1389 103 231
1390 103 234
1391 103 236
1392 103 239
1393 103 242
1394 103 246
1395 103 25
1396 103 257
1397 103 40
1398 103 43
1399 103 46
1400 103 5
1401 103 52
1402 103 55
1403 103 58
1404 103 64
1405 103 67
1406 103 71
1407 103 75
1408 103 83
1409 103 86
1410 103 90
1411 103 98
1412 104 111
1413 104 117
1414 104 184
1415 104 48
1416 104 67
1417 104 86
1418 107 0
1419 107 114
1420 107 116
1421 107 123
1422 107 187
1423 107 189
1424 107 192
1425 107 194
1426 107 230
1427 107 233
1428 107 235
1429 107 245
1430 107 26
1431 107 47
1432 107 51
1433 107 70
1434 107 89
1435 107 91
1436 107 99
1437 108 0
1438 109 101
1439 109 102
1440 109 103
1441 109 140
1442 109 146
1443 109 156
1444 109 158
1445 109 161
1446 109 167
1447 109 170
1448 109 177
1449 109 179
1450 109 197
1451 109 217
1452 109 218
1453 109 221
1454 109 222
1455 109 223
1456 109 250
1457 109 251
1458 109 29
1459 109 62
1460 109 80
1461 109 81
1462 109 95
1463 109 96
1464 110 119
1465 110 120
1466 110 144
1467 110 150
1468 110 165
1469 110 171
1470 110 213
1471 110 267
1472 110 36
1473 110 68
1474 110 69
1475 110 87
1476 110 88
1477 117 100
1478 117 107
1479 117 114
1480 117 116
1481 117 117
1482 117 118
1483 117 119
1484 117 121
1485 117 123
1486 117 124
1487 117 126
1488 117 128
1489 117 129
1490 117 130
1491 117 132
1492 117 134
1493 117 136
1494 117 139
1495 117 140
1496 117 144
1497 117 145
1498 117 148
1499 117 149
1500 117 150
1501 117 155
1502 117 157
1503 117 162
1504 117 17
1505 117 189
1506 117 19
1507 117 190
1508 117 196
1509 117 203
1510 117 207
1511 117 21
1512 117 213
1513 117 215
1514 117 217
1515 117 22
1516 117 221
1517 117 223
1518 117 224
1519 117 226
1520 117 228
1521 117 229
1522 117 230
1523 117 231
1524 117 233
1525 117 235
1526 117 236
1527 117 237
1528 117 239
1529 117 24
1530 117 240
1531 117 243
1532 117 247
1533 117 248
1534 117 26
1535 117 27
1536 117 31
1537 117 33
1538 117 35
1539 117 39
1540 117 43
1541 117 51
1542 117 52
1543 117 53
1544 117 60
1545 117 62
1546 117 64
1547 117 72
1548 117 73
1549 117 74
1550 117 75
1551 117 77
1552 117 81
1553 117 86
1554 117 87
1555 117 88
1556 117 89
1557 117 91
1558 117 94
1559 117 95
1560 117 96
1561 117 98
1562 118 142
1563 120 100
1564 120 104
1565 120 110
1566 120 113
1567 120 116
1568 120 12
1569 120 123
1570 120 125
1571 120 127
1572 120 134
1573 120 14
1574 120 176
1575 120 180
1576 120 182
1577 120 185
1578 120 187
1579 120 193
1580 120 208
1581 120 21
1582 120 220
1583 120 223
1584 120 226
1585 120 23
1586 120 235
1587 120 246
1588 120 253
1589 120 258
1590 120 26
1591 120 264
1592 120 268
1593 120 30
1594 120 33
1595 120 38
1596 120 40
1597 120 46
1598 120 50
1599 120 57
1600 120 62
1601 120 67
1602 120 7
1603 120 71
1604 120 78
1605 120 82
1606 120 85
1607 120 9
1608 120 92
1609 123 242
1610 123 250
1611 123 34
1612 123 42
1613 124 107
1614 124 114
1615 124 121
1616 124 132
1617 124 19
1618 124 217
1619 124 221
1620 124 224
1621 124 233
1622 124 24
1623 124 242
1624 124 261
1625 124 264
1626 124 268
1627 124 27
1628 124 31
1629 124 34
1630 124 42
1631 124 60
1632 124 64
1633 124 98
1634 125 107
1635 125 114
1636 125 121
1637 125 124
1638 125 126
1639 125 132
1640 125 159
1641 125 19
1642 125 207
1643 125 217
1644 125 22
1645 125 221
1646 125 224
1647 125 233
1648 125 24
1649 125 242
1650 125 262
1651 125 266
1652 125 27
1653 125 31
1654 125 34
1655 125 39
1656 125 42
1657 125 60
1658 125 64
1659 125 77
1660 125 81
1661 125 91
1662 125 98
1663 126 107
1664 126 11
1665 126 111
1666 126 114
1667 126 121
1668 126 124
1669 126 126
1670 126 132
1671 126 159
1672 126 174
1673 126 181
1674 126 184
1675 126 19
1676 126 192
1677 126 207
1678 126 209
1679 126 217
1680 126 22
1681 126 221
1682 126 224
1683 126 233
1684 126 24
1685 126 242
1686 126 27
1687 126 31
1688 126 34
1689 126 39
1690 126 42
1691 126 5
1692 126 55
1693 126 60
1694 126 64
1695 126 77
1696 126 8
1697 126 81
1698 126 83
1699 126 91
1700 126 98
1701 127 101
1702 127 107
1703 127 177
1704 127 217
1705 127 242
1706 127 27
1707 127 34
1708 127 42
1709 127 47
1710 127 64
1711 127 68
1712 130 104
1713 130 110
1714 130 12
1715 130 125
1716 130 127
1717 130 14
1718 130 180
1719 130 182
1720 130 185
1721 130 187
1722 130 193
1723 130 208
1724 130 220
1725 130 23
1726 130 253
1727 130 258
1728 130 263
1729 130 267
1730 130 30
1731 130 40
1732 130 50
1733 130 67
1734 130 71
1735 130 78
1736 130 82
1737 130 9
1738 130 92
1739 132 118
1740 132 119
1741 132 129
1742 132 130
1743 132 136
1744 132 139
1745 132 145
1746 132 148
1747 132 155
1748 132 157
1749 132 17
1750 132 190
1751 132 196
1752 132 228
1753 132 229
1754 132 230
1755 132 231
1756 132 237
1757 132 240
1758 132 248
1759 132 52
1760 132 53
1761 132 73
1762 132 74
1763 132 75
1764 132 87
1765 132 88
1766 132 89
1767 132 95
1768 132 96
1769 133 108
1770 133 109
1771 133 143
1772 133 149
1773 133 203
1774 133 218
1775 133 219
1776 133 244
1777 133 245
1778 133 28
1779 133 29
1780 133 36
1781 133 37
1782 133 44
1783 133 45
1784 133 65
1785 133 66
1786 140 100
1787 140 103
1788 140 107
1789 140 109
1790 140 110
1791 140 111
1792 140 112
1793 140 114
1794 140 116
1795 140 117
1796 140 118
1797 140 120
1798 140 122
1799 140 123
1800 140 124
1801 140 126
1802 140 132
1803 140 134
1804 140 139
1805 140 14
1806 140 140
1807 140 144
1808 140 145
1809 140 148
1810 140 149
1811 140 15
1812 140 150
1813 140 155
1814 140 157
1815 140 16
1816 140 18
1817 140 186
1818 140 189
1819 140 191
1820 140 200
1821 140 202
1822 140 204
1823 140 206
1824 140 208
1825 140 21
1826 140 212
1827 140 214
1828 140 215
1829 140 217
1830 140 219
1831 140 221
1832 140 223
1833 140 224
1834 140 226
1835 140 228
1836 140 230
1837 140 233
1838 140 234
1839 140 235
1840 140 242
1841 140 244
1842 140 246
1843 140 248
1844 140 25
1845 140 250
1846 140 252
1847 140 253
1848 140 255
1849 140 257
1850 140 266
1851 140 268
1852 140 29
1853 140 31
1854 140 36
1855 140 38
1856 140 41
1857 140 45
1858 140 47
1859 140 48
1860 140 50
1861 140 51
1862 140 53
1863 140 54
1864 140 60
1865 140 62
1866 140 66
1867 140 68
1868 140 69
1869 140 73
1870 140 78
1871 140 80
1872 140 81
1873 140 83
1874 140 89
1875 140 91
1876 140 92
1877 140 94
1878 140 95
1879 140 97
1880 140 98
1881 141 142
1882 143 100
1883 143 104
1884 143 109
1885 143 11
1886 143 115
1887 143 121
1888 143 127
1889 143 161
1890 143 165
1891 143 169
1892 143 174
1893 143 180
1894 143 184
1895 143 187
1896 143 19
1897 143 190
1898 143 196
1899 143 201
1900 143 203
1901 143 206
1902 143 214
1903 143 217
1904 143 220
1905 143 223
1906 143 226
1907 143 230
1908 143 24
1909 143 240
1910 143 244
1911 143 247
1912 143 249
1913 143 252
1914 143 254
1915 143 257
1916 143 26
1917 143 261
1918 143 31
1919 143 44
1920 143 47
1921 143 50
1922 143 53
1923 143 57
1924 143 62
1925 143 65
1926 143 7
1927 143 70
1928 143 76
1929 143 80
1930 143 83
1931 143 87
1932 143 91
1933 143 94
1934 143 97
1935 146 166
1936 146 20
1937 146 66
1938 147 107
1939 147 177
1940 147 180
1941 147 184
1942 147 188
1943 147 193
1944 147 20
1945 147 204
1946 147 212
1947 147 215
1948 147 221
1949 147 224
1950 147 228
1951 147 242
1952 147 250
1953 147 255
1954 147 29
1955 147 41
1956 147 45
1957 147 48
1958 147 51
1959 147 54
1960 147 60
1961 147 66
1962 147 73
1963 147 78
1964 147 81
1965 147 89
1966 147 92
1967 147 95
1968 147 98
1969 148 103
1970 148 107
1971 148 114
1972 148 120
1973 148 126
1974 148 178
1975 148 18
1976 148 182
1977 148 186
1978 148 188
1979 148 193
1980 148 20
1981 148 200
1982 148 202
1983 148 204
1984 148 212
1985 148 215
1986 148 219
1987 148 221
1988 148 224
1989 148 228
1990 148 242
1991 148 246
1992 148 248
1993 148 25
1994 148 250
1995 148 253
1996 148 255
1997 148 29
1998 148 41
1999 148 45
2000 148 48
2001 148 51
2002 148 54
2003 148 60
2004 148 67
2005 148 69
2006 148 73
2007 148 78
2008 148 81
2009 148 89
2010 148 92
2011 148 95
2012 148 98
2013 149 103
2014 149 107
2015 149 114
2016 149 120
2017 149 126
2018 149 128
2019 149 159
2020 149 18
2021 149 186
2022 149 188
2023 149 193
2024 149 20
2025 149 200
2026 149 202
2027 149 204
2028 149 212
2029 149 215
2030 149 219
2031 149 221
2032 149 224
2033 149 228
2034 149 242
2035 149 246
2036 149 248
2037 149 25
2038 149 250
2039 149 253
2040 149 255
2041 149 262
2042 149 29
2043 149 32
2044 149 41
2045 149 45
2046 149 48
2047 149 5
2048 149 51
2049 149 54
2050 149 60
2051 149 63
2052 149 66
2053 149 69
2054 149 73
2055 149 78
2056 149 81
2057 149 89
2058 149 92
2059 149 95
2060 149 98
2061 150 162
2062 150 193
2063 150 20
2064 150 237
2065 150 258
2066 150 41
2067 150 54
2068 150 73
2069 150 8
2070 150 84
2071 153 104
2072 153 11
2073 153 115
2074 153 121
2075 153 127
2076 153 165
2077 153 169
2078 153 174
2079 153 179
2080 153 183
2081 153 187
2082 153 19
2083 153 196
2084 153 201
2085 153 203
2086 153 220
2087 153 240
2088 153 247
2089 153 249
2090 153 254
2091 153 26
2092 153 261
2093 153 44
2094 153 57
2095 153 68
2096 153 70
2097 153 76
2098 153 87
2099 155 111
2100 155 112
2101 155 117
2102 155 118
2103 155 123
2104 155 124
2105 155 139
2106 155 145
2107 155 148
2108 155 15
2109 155 155
2110 155 157
2111 155 16
2112 155 208
2113 155 234
2114 155 235
2115 156 143
2116 156 149
2117 156 194
2118 156 195
2119 156 197
2120 156 198
2121 156 22
2122 156 23
2123 156 42
2124 156 43
2125 156 55
2126 156 56
2127 156 74
2128 156 75
2129 157 0
2130 157 276
2131 163 103
2132 163 105
2133 163 107
2134 163 109
2135 163 110
2136 163 112
2137 163 113
2138 163 116
2139 163 118
2140 163 119
2141 163 121
2142 163 123
2143 163 124
2144 163 126
2145 163 132
2146 163 141
2147 163 143
2148 163 144
2149 163 145
2150 163 147
2151 163 149
2152 163 15
2153 163 151
2154 163 152
2155 163 153
2156 163 155
2157 163 157
2158 163 159
2159 163 16
2160 163 161
2161 163 163
2162 163 164
2163 163 165
2164 163 17
2165 163 171
2166 163 173
2167 163 175
2168 163 177
2169 163 178
2170 163 180
2171 163 181
2172 163 182
2173 163 19
2174 163 193
2175 163 197
2176 163 199
2177 163 20
2178 163 201
2179 163 202
2180 163 203
2181 163 204
2182 163 209
2183 163 21
2184 163 211
2185 163 212
2186 163 214
2187 163 215
2188 163 217
2189 163 218
2190 163 222
2191 163 224
2192 163 225
2193 163 226
2194 163 23
2195 163 232
2196 163 234
2197 163 238
2198 163 240
2199 163 241
2200 163 243
2201 163 245
2202 163 247
2203 163 249
2204 163 25
2205 163 250
2206 163 251
2207 163 253
2208 163 255
2209 163 267
2210 163 269
2211 163 29
2212 163 34
2213 163 38
2214 163 40
2215 163 42
2216 163 43
2217 163 44
2218 163 45
2219 163 46
2220 163 48
2221 163 49
2222 163 53
2223 163 57
2224 163 58
2225 163 59
2226 163 61
2227 163 63
2228 163 65
2229 163 66
2230 163 67
2231 163 69
2232 163 71
2233 163 79
2234 163 82
2235 163 86
2236 163 88
2237 163 89
2238 163 93
2239 163 95
2240 163 99
2241 166 10
2242 166 100
2243 166 105
2244 166 109
2245 166 112
2246 166 114
2247 166 118
2248 166 120
2249 166 126
2250 166 130
2251 166 133
2252 166 136
2253 166 14
2254 166 140
2255 166 148
2256 166 157
2257 166 161
2258 166 177
2259 166 187
2260 166 191
2261 166 196
2262 166 198
2263 166 201
2264 166 208
2265 166 211
2266 166 214
2267 166 217
2268 166 221
2269 166 223
2270 166 229
2271 166 237
2272 166 24
2273 166 242
2274 166 244
2275 166 246
2276 166 248
2277 166 255
2278 166 258
2279 166 26
2280 166 262
2281 166 30
2282 166 33
2283 166 37
2284 166 39
2285 166 41
2286 166 54
2287 166 62
2288 166 65
2289 166 7
2290 166 71
2291 166 74
2292 166 78
2293 166 80
2294 166 85
2295 166 88
2296 166 92
2297 166 94
2298 166 98
2299 169 121
2300 169 238
2301 169 81
2302 170 103
2303 170 107
2304 170 110
2305 170 116
2306 170 121
2307 170 124
2308 170 143
2309 170 151
2310 170 155
2311 170 159
2312 170 175
2313 170 178
2314 170 184
2315 170 187
2316 170 191
2317 170 193
2318 170 199
2319 170 209
2320 170 212
2321 170 215
2322 170 218
2323 170 234
2324 170 238
2325 170 253
2326 170 34
2327 170 63
2328 170 69
2329 170 81
2330 170 86
2331 170 89
2332 170 95
2333 171 103
2334 171 107
2335 171 110
2336 171 113
2337 171 116
2338 171 119
2339 171 122
2340 171 124
2341 171 132
2342 171 147
2343 171 155
2344 171 159
2345 171 175
2346 171 185
2347 171 189
2348 171 193
2349 171 197
2350 171 199
2351 171 209
2352 171 212
2353 171 215
2354 171 218
2355 171 222
2356 171 23
2357 171 234
2358 171 239
2359 171 241
2360 171 243
2361 171 245
2362 171 247
2363 171 25
2364 171 253
2365 171 29
2366 171 34
2367 171 38
2368 171 40
2369 171 53
2370 171 61
2371 171 63
2372 171 69
2373 171 79
2374 171 81
2375 171 86
2376 171 89
2377 171 93
2378 171 95
2379 171 99
2380 172 0
2381 172 103
2382 172 107
2383 172 110
2384 172 113
2385 172 116
2386 172 119
2387 172 121
2388 172 124
2389 172 132
2390 172 134
2391 172 142
2392 172 147
2393 172 150
2394 172 155
2395 172 159
2396 172 167
2397 172 175
2398 172 180
2399 172 193
2400 172 197
2401 172 199
2402 172 206
2403 172 209
2404 172 212
2405 172 215
2406 172 218
2407 172 222
2408 172 228
2409 172 23
2410 172 234
2411 172 238
2412 172 241
2413 172 243
2414 172 245
2415 172 247
2416 172 25
2417 172 253
2418 172 256
2419 172 263
2420 172 276
2421 172 29
2422 172 31
2423 172 34
2424 172 38
2425 172 40
2426 172 5
2427 172 53
2428 172 61
2429 172 63
2430 172 69
2431 172 72
2432 172 79
2433 172 8
2434 172 81
2435 172 86
2436 172 89
2437 172 93
2438 172 95
2439 172 99
2440 173 0
2441 173 127
2442 173 193
2443 173 218
2444 173 234
2445 173 259
2446 173 276
2447 173 34
2448 173 75
2449 173 81
2450 173 89
2451 173 95
2452 176 100
2453 176 114
2454 176 120
2455 176 123
2456 176 130
2457 176 133
2458 176 145
2459 176 148
2460 176 153
2461 176 186
2462 176 190
2463 176 196
2464 176 198
2465 176 221
2466 176 223
2467 176 229
2468 176 237
2469 176 24
2470 176 240
2471 176 242
2472 176 244
2473 176 246
2474 176 248
2475 176 26
2476 176 262
2477 176 30
2478 176 37
2479 176 39
2480 176 41
2481 176 54
2482 176 62
2483 176 78
2484 176 80
2485 176 92
2486 176 94
2487 176 98
2488 178 16
2489 178 164
2490 178 165
2491 178 17
2492 178 20
2493 178 203
2494 178 204
2495 178 21
2496 178 225
2497 178 226
2498 178 232
2499 178 250
2500 178 251
2501 178 43
2502 178 44
2503 178 45
2504 178 46
2505 178 49
2506 178 58
2507 178 59
2508 178 67
2509 179 194
2510 179 195
2511 179 219
2512 179 220
2513 179 235
2514 179 236
2515 179 35
2516 179 36
2517 179 83
2518 179 84
2519 179 90
2520 179 91
2521 179 96
2522 179 97
2523 186 103
2524 186 107
2525 186 108
2526 186 109
2527 186 115
2528 186 117
2529 186 118
2530 186 120
2531 186 121
2532 186 123
2533 186 124
2534 186 125
2535 186 126
2536 186 13
2537 186 133
2538 186 136
2539 186 138
2540 186 149
2541 186 151
2542 186 152
2543 186 153
2544 186 155
2545 186 157
2546 186 159
2547 186 160
2548 186 161
2549 186 163
2550 186 165
2551 186 166
2552 186 17
2553 186 172
2554 186 175
2555 186 180
2556 186 182
2557 186 183
2558 186 184
2559 186 19
2560 186 194
2561 186 196
2562 186 198
2563 186 200
2564 186 202
2565 186 212
2566 186 214
2567 186 215
2568 186 217
2569 186 219
2570 186 224
2571 186 226
2572 186 228
2573 186 230
2574 186 232
2575 186 233
2576 186 235
2577 186 240
2578 186 242
2579 186 243
2580 186 244
2581 186 245
2582 186 246
2583 186 248
2584 186 250
2585 186 252
2586 186 258
2587 186 30
2588 186 32
2589 186 33
2590 186 34
2591 186 36
2592 186 38
2593 186 39
2594 186 40
2595 186 42
2596 186 44
2597 186 45
2598 186 47
2599 186 55
2600 186 57
2601 186 59
2602 186 6
2603 186 60
2604 186 61
2605 186 63
2606 186 65
2607 186 66
2608 186 68
2609 186 69
2610 186 70
2611 186 71
2612 186 73
2613 186 77
2614 186 78
2615 186 79
2616 186 86
2617 186 88
2618 186 89
2619 186 91
2620 186 92
2621 189 100
2622 189 104
2623 189 114
2624 189 120
2625 189 122
2626 189 130
2627 189 134
2628 189 139
2629 189 141
2630 189 144
2631 189 146
2632 189 157
2633 189 165
2634 189 167
2635 189 171
2636 189 173
2637 189 179
2638 189 187
2639 189 189
2640 189 195
2641 189 199
2642 189 202
2643 189 206
2644 189 208
2645 189 21
2646 189 214
2647 189 217
2648 189 223
2649 189 226
2650 189 229
2651 189 232
2652 189 235
2653 189 239
2654 189 24
2655 189 249
2656 189 26
2657 189 263
2658 189 266
2659 189 270
2660 189 44
2661 189 46
2662 189 50
2663 189 65
2664 189 68
2665 189 74
2666 189 84
2667 189 88
2668 189 91
2669 189 93
2670 189 96
2671 192 115
2672 192 17
2673 192 240
2674 192 250
2675 193 115
2676 193 118
2677 193 151
2678 193 155
2679 193 163
2680 193 17
2681 193 182
2682 193 193
2683 193 200
2684 193 212
2685 193 215
2686 193 224
2687 193 230
2688 193 233
2689 193 240
2690 193 250
2691 193 30
2692 193 36
2693 193 42
2694 193 47
2695 193 63
2696 193 66
2697 193 86
2698 193 89
2699 194 103
2700 194 116
2701 194 118
2702 194 121
2703 194 133
2704 194 138
2705 194 155
2706 194 163
2707 194 166
2708 194 172
2709 194 18
2710 194 193
2711 194 198
2712 194 200
2713 194 212
2714 194 215
2715 194 224
2716 194 228
2717 194 230
2718 194 233
2719 194 241
2720 194 248
2721 194 251
2722 194 42
2723 194 45
2724 194 47
2725 194 63
2726 194 66
2727 194 73
2728 194 86
2729 194 89
2730 194 92
2731 195 103
2732 195 115
2733 195 118
2734 195 121
2735 195 128
2736 195 133
2737 195 138
2738 195 140
2739 195 143
2740 195 150
2741 195 155
2742 195 163
2743 195 166
2744 195 17
2745 195 172
2746 195 177
2747 195 181
2748 195 186
2749 195 193
2750 195 198
2751 195 20
2752 195 200
2753 195 207
2754 195 212
2755 195 215
2756 195 221
2757 195 224
2758 195 228
2759 195 23
2760 195 230
2761 195 233
2762 195 240
2763 195 248
2764 195 250
2765 195 261
2766 195 264
2767 195 32
2768 195 38
2769 195 42
2770 195 45
2771 195 47
2772 195 51
2773 195 63
2774 195 66
2775 195 73
2776 195 86
2777 195 89
2778 195 92
2779 195 94
2780 196 111
2781 196 168
2782 196 203
2783 196 236
2784 196 47
2785 196 81
2786 199 104
2787 199 114
2788 199 117
2789 199 122
2790 199 134
2791 199 139
2792 199 141
2793 199 144
2794 199 146
2795 199 153
2796 199 167
2797 199 171
2798 199 173
2799 199 184
2800 199 187
2801 199 189
2802 199 19
2803 199 199
2804 199 206
2805 199 208
2806 199 21
2807 199 229
2808 199 239
2809 199 24
2810 199 242
2811 199 249
2812 199 252
2813 199 26
2814 199 46
2815 199 50
2816 199 74
2817 199 84
2818 199 93
2819 201 108
2820 201 109
2821 201 124
2822 201 125
2823 201 126
2824 201 136
2825 201 160
2826 201 161
2827 201 175
2828 201 219
2829 201 244
2830 201 245
2831 201 246
2832 201 6
2833 201 60
2834 201 61
2835 201 70
2836 201 71
2837 201 78
2838 201 79
2839 202 13
2840 202 258
2841 202 48
2842 202 49
2843 215 125
2844 215 138
2845 215 156
2846 215 169
2847 215 187
2848 215 200
2849 215 218
2850 215 238
2851 215 249
2852 215 32
2853 215 63
2854 215 94
EOF
